(set-logic QF_NRA)
(declare-fun x1 () Real)
(declare-fun x2 () Real)
(declare-fun x3 () Real)
(declare-fun x4 () Real)
(declare-fun x5 () Real)
(declare-fun x6 () Real)
(assert
(and
(and (<= (/ 784 100) x1) (<= x1 8))(and (<= 4 x2) (<= x2 (/ 40401 10000)))(and (<= 4 x3) (<= x3 (/ 40401 10000)))(and (<= (/ 784 100) x4) (<= x4 8))(and (<= 4 x5) (<= x5 (/ 40401 10000)))(and (<= 4 x6) (<= x6 (/ 40401 10000)))(not (or (>= (- (/ 1 12) (- (* (* 2 (/ (* (- (* 3 (arccos (/ 1 3))) (/ 314159265 100000000)) (/ (^ 8 (/ 5 10)) (- (* 4 (/ 314159265 100000000)) (* 20 (- (* 3 (arccos (/ 1 3))) (/ 314159265 100000000)))))) (/ 314159265 100000000))) (+ (/ (ite (= (/ (+ (* x1 (* x4 (+ (- x1) (+ x2 (+ (- x3 x4) (+ x5 x6)))))) (+ (* x2 (* x5 (+ (- x1 x2) (+ x3 (+ (- x4 x5) x6))))) (- (- (- (- (* x3 (* x6 (+ x1 (+ (- x2 x3) (+ x4 (- x5 x6)))))) (* x2 (* x3 x4))) (* x1 (* x3 x5))) (* x1 (* x2 x6))) (* x4 (* x5 x6))))) (* 4 (^ (+ (^ (* x1 (* x2 x3)) (/ 5 10)) (+ (* (^ x1 (/ 5 10)) (/ (+ x2 (- x3 x4)) 2)) (+ (* (^ x2 (/ 5 10)) (/ (+ x1 (- x3 x5)) 2)) (* (^ x3 (/ 5 10)) (/ (+ x1 (- x2 x6)) 2))))) 2))) 0) 1 (ite (> (/ (+ (* x1 (* x4 (+ (- x1) (+ x2 (+ (- x3 x4) (+ x5 x6)))))) (+ (* x2 (* x5 (+ (- x1 x2) (+ x3 (+ (- x4 x5) x6))))) (- (- (- (- (* x3 (* x6 (+ x1 (+ (- x2 x3) (+ x4 (- x5 x6)))))) (* x2 (* x3 x4))) (* x1 (* x3 x5))) (* x1 (* x2 x6))) (* x4 (* x5 x6))))) (* 4 (^ (+ (^ (* x1 (* x2 x3)) (/ 5 10)) (+ (* (^ x1 (/ 5 10)) (/ (+ x2 (- x3 x4)) 2)) (+ (* (^ x2 (/ 5 10)) (/ (+ x1 (- x3 x5)) 2)) (* (^ x3 (/ 5 10)) (/ (+ x1 (- x2 x6)) 2))))) 2))) 0) (/ (arctan (^ (/ (+ (* x1 (* x4 (+ (- x1) (+ x2 (+ (- x3 x4) (+ x5 x6)))))) (+ (* x2 (* x5 (+ (- x1 x2) (+ x3 (+ (- x4 x5) x6))))) (- (- (- (- (* x3 (* x6 (+ x1 (+ (- x2 x3) (+ x4 (- x5 x6)))))) (* x2 (* x3 x4))) (* x1 (* x3 x5))) (* x1 (* x2 x6))) (* x4 (* x5 x6))))) (* 4 (^ (+ (^ (* x1 (* x2 x3)) (/ 5 10)) (+ (* (^ x1 (/ 5 10)) (/ (+ x2 (- x3 x4)) 2)) (+ (* (^ x2 (/ 5 10)) (/ (+ x1 (- x3 x5)) 2)) (* (^ x3 (/ 5 10)) (/ (+ x1 (- x2 x6)) 2))))) 2))) (/ 5 10))) (^ (/ (+ (* x1 (* x4 (+ (- x1) (+ x2 (+ (- x3 x4) (+ x5 x6)))))) (+ (* x2 (* x5 (+ (- x1 x2) (+ x3 (+ (- x4 x5) x6))))) (- (- (- (- (* x3 (* x6 (+ x1 (+ (- x2 x3) (+ x4 (- x5 x6)))))) (* x2 (* x3 x4))) (* x1 (* x3 x5))) (* x1 (* x2 x6))) (* x4 (* x5 x6))))) (* 4 (^ (+ (^ (* x1 (* x2 x3)) (/ 5 10)) (+ (* (^ x1 (/ 5 10)) (/ (+ x2 (- x3 x4)) 2)) (+ (* (^ x2 (/ 5 10)) (/ (+ x1 (- x3 x5)) 2)) (* (^ x3 (/ 5 10)) (/ (+ x1 (- x2 x6)) 2))))) 2))) (/ 5 10))) (/ (log (/ (+ 1 (^ (- (/ (+ (* x1 (* x4 (+ (- x1) (+ x2 (+ (- x3 x4) (+ x5 x6)))))) (+ (* x2 (* x5 (+ (- x1 x2) (+ x3 (+ (- x4 x5) x6))))) (- (- (- (- (* x3 (* x6 (+ x1 (+ (- x2 x3) (+ x4 (- x5 x6)))))) (* x2 (* x3 x4))) (* x1 (* x3 x5))) (* x1 (* x2 x6))) (* x4 (* x5 x6))))) (* 4 (^ (+ (^ (* x1 (* x2 x3)) (/ 5 10)) (+ (* (^ x1 (/ 5 10)) (/ (+ x2 (- x3 x4)) 2)) (+ (* (^ x2 (/ 5 10)) (/ (+ x1 (- x3 x5)) 2)) (* (^ x3 (/ 5 10)) (/ (+ x1 (- x2 x6)) 2))))) 2)))) (/ 5 10))) (- 1 (^ (- (/ (+ (* x1 (* x4 (+ (- x1) (+ x2 (+ (- x3 x4) (+ x5 x6)))))) (+ (* x2 (* x5 (+ (- x1 x2) (+ x3 (+ (- x4 x5) x6))))) (- (- (- (- (* x3 (* x6 (+ x1 (+ (- x2 x3) (+ x4 (- x5 x6)))))) (* x2 (* x3 x4))) (* x1 (* x3 x5))) (* x1 (* x2 x6))) (* x4 (* x5 x6))))) (* 4 (^ (+ (^ (* x1 (* x2 x3)) (/ 5 10)) (+ (* (^ x1 (/ 5 10)) (/ (+ x2 (- x3 x4)) 2)) (+ (* (^ x2 (/ 5 10)) (/ (+ x1 (- x3 x5)) 2)) (* (^ x3 (/ 5 10)) (/ (+ x1 (- x2 x6)) 2))))) 2)))) (/ 5 10))))) (* 2 (^ (- (/ (+ (* x1 (* x4 (+ (- x1) (+ x2 (+ (- x3 x4) (+ x5 x6)))))) (+ (* x2 (* x5 (+ (- x1 x2) (+ x3 (+ (- x4 x5) x6))))) (- (- (- (- (* x3 (* x6 (+ x1 (+ (- x2 x3) (+ x4 (- x5 x6)))))) (* x2 (* x3 x4))) (* x1 (* x3 x5))) (* x1 (* x2 x6))) (* x4 (* x5 x6))))) (* 4 (^ (+ (^ (* x1 (* x2 x3)) (/ 5 10)) (+ (* (^ x1 (/ 5 10)) (/ (+ x2 (- x3 x4)) 2)) (+ (* (^ x2 (/ 5 10)) (/ (+ x1 (- x3 x5)) 2)) (* (^ x3 (/ 5 10)) (/ (+ x1 (- x2 x6)) 2))))) 2)))) (/ 5 10)))))) (+ (^ (* x1 (* x2 x3)) (/ 5 10)) (+ (* (^ x1 (/ 5 10)) (/ (+ x2 (- x3 x4)) 2)) (+ (* (^ x2 (/ 5 10)) (/ (+ x1 (- x3 x5)) 2)) (* (^ x3 (/ 5 10)) (/ (+ x1 (- x2 x6)) 2)))))) (+ (/ (ite (= (/ (+ (* x5 (* x2 (+ (- x5) (+ x3 (+ (- x4 x2) (+ x6 x1)))))) (+ (* x3 (* x6 (+ (- x5 x3) (+ x4 (+ (- x2 x6) x1))))) (- (- (- (- (* x4 (* x1 (+ x5 (+ (- x3 x4) (+ x2 (- x6 x1)))))) (* x3 (* x4 x2))) (* x5 (* x4 x6))) (* x5 (* x3 x1))) (* x2 (* x6 x1))))) (* 4 (^ (+ (^ (* x5 (* x3 x4)) (/ 5 10)) (+ (* (^ x5 (/ 5 10)) (/ (+ x3 (- x4 x2)) 2)) (+ (* (^ x3 (/ 5 10)) (/ (+ x5 (- x4 x6)) 2)) (* (^ x4 (/ 5 10)) (/ (+ x5 (- x3 x1)) 2))))) 2))) 0) 1 (ite (> (/ (+ (* x5 (* x2 (+ (- x5) (+ x3 (+ (- x4 x2) (+ x6 x1)))))) (+ (* x3 (* x6 (+ (- x5 x3) (+ x4 (+ (- x2 x6) x1))))) (- (- (- (- (* x4 (* x1 (+ x5 (+ (- x3 x4) (+ x2 (- x6 x1)))))) (* x3 (* x4 x2))) (* x5 (* x4 x6))) (* x5 (* x3 x1))) (* x2 (* x6 x1))))) (* 4 (^ (+ (^ (* x5 (* x3 x4)) (/ 5 10)) (+ (* (^ x5 (/ 5 10)) (/ (+ x3 (- x4 x2)) 2)) (+ (* (^ x3 (/ 5 10)) (/ (+ x5 (- x4 x6)) 2)) (* (^ x4 (/ 5 10)) (/ (+ x5 (- x3 x1)) 2))))) 2))) 0) (/ (arctan (^ (/ (+ (* x5 (* x2 (+ (- x5) (+ x3 (+ (- x4 x2) (+ x6 x1)))))) (+ (* x3 (* x6 (+ (- x5 x3) (+ x4 (+ (- x2 x6) x1))))) (- (- (- (- (* x4 (* x1 (+ x5 (+ (- x3 x4) (+ x2 (- x6 x1)))))) (* x3 (* x4 x2))) (* x5 (* x4 x6))) (* x5 (* x3 x1))) (* x2 (* x6 x1))))) (* 4 (^ (+ (^ (* x5 (* x3 x4)) (/ 5 10)) (+ (* (^ x5 (/ 5 10)) (/ (+ x3 (- x4 x2)) 2)) (+ (* (^ x3 (/ 5 10)) (/ (+ x5 (- x4 x6)) 2)) (* (^ x4 (/ 5 10)) (/ (+ x5 (- x3 x1)) 2))))) 2))) (/ 5 10))) (^ (/ (+ (* x5 (* x2 (+ (- x5) (+ x3 (+ (- x4 x2) (+ x6 x1)))))) (+ (* x3 (* x6 (+ (- x5 x3) (+ x4 (+ (- x2 x6) x1))))) (- (- (- (- (* x4 (* x1 (+ x5 (+ (- x3 x4) (+ x2 (- x6 x1)))))) (* x3 (* x4 x2))) (* x5 (* x4 x6))) (* x5 (* x3 x1))) (* x2 (* x6 x1))))) (* 4 (^ (+ (^ (* x5 (* x3 x4)) (/ 5 10)) (+ (* (^ x5 (/ 5 10)) (/ (+ x3 (- x4 x2)) 2)) (+ (* (^ x3 (/ 5 10)) (/ (+ x5 (- x4 x6)) 2)) (* (^ x4 (/ 5 10)) (/ (+ x5 (- x3 x1)) 2))))) 2))) (/ 5 10))) (/ (log (/ (+ 1 (^ (- (/ (+ (* x5 (* x2 (+ (- x5) (+ x3 (+ (- x4 x2) (+ x6 x1)))))) (+ (* x3 (* x6 (+ (- x5 x3) (+ x4 (+ (- x2 x6) x1))))) (- (- (- (- (* x4 (* x1 (+ x5 (+ (- x3 x4) (+ x2 (- x6 x1)))))) (* x3 (* x4 x2))) (* x5 (* x4 x6))) (* x5 (* x3 x1))) (* x2 (* x6 x1))))) (* 4 (^ (+ (^ (* x5 (* x3 x4)) (/ 5 10)) (+ (* (^ x5 (/ 5 10)) (/ (+ x3 (- x4 x2)) 2)) (+ (* (^ x3 (/ 5 10)) (/ (+ x5 (- x4 x6)) 2)) (* (^ x4 (/ 5 10)) (/ (+ x5 (- x3 x1)) 2))))) 2)))) (/ 5 10))) (- 1 (^ (- (/ (+ (* x5 (* x2 (+ (- x5) (+ x3 (+ (- x4 x2) (+ x6 x1)))))) (+ (* x3 (* x6 (+ (- x5 x3) (+ x4 (+ (- x2 x6) x1))))) (- (- (- (- (* x4 (* x1 (+ x5 (+ (- x3 x4) (+ x2 (- x6 x1)))))) (* x3 (* x4 x2))) (* x5 (* x4 x6))) (* x5 (* x3 x1))) (* x2 (* x6 x1))))) (* 4 (^ (+ (^ (* x5 (* x3 x4)) (/ 5 10)) (+ (* (^ x5 (/ 5 10)) (/ (+ x3 (- x4 x2)) 2)) (+ (* (^ x3 (/ 5 10)) (/ (+ x5 (- x4 x6)) 2)) (* (^ x4 (/ 5 10)) (/ (+ x5 (- x3 x1)) 2))))) 2)))) (/ 5 10))))) (* 2 (^ (- (/ (+ (* x5 (* x2 (+ (- x5) (+ x3 (+ (- x4 x2) (+ x6 x1)))))) (+ (* x3 (* x6 (+ (- x5 x3) (+ x4 (+ (- x2 x6) x1))))) (- (- (- (- (* x4 (* x1 (+ x5 (+ (- x3 x4) (+ x2 (- x6 x1)))))) (* x3 (* x4 x2))) (* x5 (* x4 x6))) (* x5 (* x3 x1))) (* x2 (* x6 x1))))) (* 4 (^ (+ (^ (* x5 (* x3 x4)) (/ 5 10)) (+ (* (^ x5 (/ 5 10)) (/ (+ x3 (- x4 x2)) 2)) (+ (* (^ x3 (/ 5 10)) (/ (+ x5 (- x4 x6)) 2)) (* (^ x4 (/ 5 10)) (/ (+ x5 (- x3 x1)) 2))))) 2)))) (/ 5 10)))))) (+ (^ (* x5 (* x3 x4)) (/ 5 10)) (+ (* (^ x5 (/ 5 10)) (/ (+ x3 (- x4 x2)) 2)) (+ (* (^ x3 (/ 5 10)) (/ (+ x5 (- x4 x6)) 2)) (* (^ x4 (/ 5 10)) (/ (+ x5 (- x3 x1)) 2)))))) (+ (/ (ite (= (/ (+ (* x6 (* x3 (+ (- x6) (+ x1 (+ (- x5 x3) (+ x4 x2)))))) (+ (* x1 (* x4 (+ (- x6 x1) (+ x5 (+ (- x3 x4) x2))))) (- (- (- (- (* x5 (* x2 (+ x6 (+ (- x1 x5) (+ x3 (- x4 x2)))))) (* x1 (* x5 x3))) (* x6 (* x5 x4))) (* x6 (* x1 x2))) (* x3 (* x4 x2))))) (* 4 (^ (+ (^ (* x6 (* x1 x5)) (/ 5 10)) (+ (* (^ x6 (/ 5 10)) (/ (+ x1 (- x5 x3)) 2)) (+ (* (^ x1 (/ 5 10)) (/ (+ x6 (- x5 x4)) 2)) (* (^ x5 (/ 5 10)) (/ (+ x6 (- x1 x2)) 2))))) 2))) 0) 1 (ite (> (/ (+ (* x6 (* x3 (+ (- x6) (+ x1 (+ (- x5 x3) (+ x4 x2)))))) (+ (* x1 (* x4 (+ (- x6 x1) (+ x5 (+ (- x3 x4) x2))))) (- (- (- (- (* x5 (* x2 (+ x6 (+ (- x1 x5) (+ x3 (- x4 x2)))))) (* x1 (* x5 x3))) (* x6 (* x5 x4))) (* x6 (* x1 x2))) (* x3 (* x4 x2))))) (* 4 (^ (+ (^ (* x6 (* x1 x5)) (/ 5 10)) (+ (* (^ x6 (/ 5 10)) (/ (+ x1 (- x5 x3)) 2)) (+ (* (^ x1 (/ 5 10)) (/ (+ x6 (- x5 x4)) 2)) (* (^ x5 (/ 5 10)) (/ (+ x6 (- x1 x2)) 2))))) 2))) 0) (/ (arctan (^ (/ (+ (* x6 (* x3 (+ (- x6) (+ x1 (+ (- x5 x3) (+ x4 x2)))))) (+ (* x1 (* x4 (+ (- x6 x1) (+ x5 (+ (- x3 x4) x2))))) (- (- (- (- (* x5 (* x2 (+ x6 (+ (- x1 x5) (+ x3 (- x4 x2)))))) (* x1 (* x5 x3))) (* x6 (* x5 x4))) (* x6 (* x1 x2))) (* x3 (* x4 x2))))) (* 4 (^ (+ (^ (* x6 (* x1 x5)) (/ 5 10)) (+ (* (^ x6 (/ 5 10)) (/ (+ x1 (- x5 x3)) 2)) (+ (* (^ x1 (/ 5 10)) (/ (+ x6 (- x5 x4)) 2)) (* (^ x5 (/ 5 10)) (/ (+ x6 (- x1 x2)) 2))))) 2))) (/ 5 10))) (^ (/ (+ (* x6 (* x3 (+ (- x6) (+ x1 (+ (- x5 x3) (+ x4 x2)))))) (+ (* x1 (* x4 (+ (- x6 x1) (+ x5 (+ (- x3 x4) x2))))) (- (- (- (- (* x5 (* x2 (+ x6 (+ (- x1 x5) (+ x3 (- x4 x2)))))) (* x1 (* x5 x3))) (* x6 (* x5 x4))) (* x6 (* x1 x2))) (* x3 (* x4 x2))))) (* 4 (^ (+ (^ (* x6 (* x1 x5)) (/ 5 10)) (+ (* (^ x6 (/ 5 10)) (/ (+ x1 (- x5 x3)) 2)) (+ (* (^ x1 (/ 5 10)) (/ (+ x6 (- x5 x4)) 2)) (* (^ x5 (/ 5 10)) (/ (+ x6 (- x1 x2)) 2))))) 2))) (/ 5 10))) (/ (log (/ (+ 1 (^ (- (/ (+ (* x6 (* x3 (+ (- x6) (+ x1 (+ (- x5 x3) (+ x4 x2)))))) (+ (* x1 (* x4 (+ (- x6 x1) (+ x5 (+ (- x3 x4) x2))))) (- (- (- (- (* x5 (* x2 (+ x6 (+ (- x1 x5) (+ x3 (- x4 x2)))))) (* x1 (* x5 x3))) (* x6 (* x5 x4))) (* x6 (* x1 x2))) (* x3 (* x4 x2))))) (* 4 (^ (+ (^ (* x6 (* x1 x5)) (/ 5 10)) (+ (* (^ x6 (/ 5 10)) (/ (+ x1 (- x5 x3)) 2)) (+ (* (^ x1 (/ 5 10)) (/ (+ x6 (- x5 x4)) 2)) (* (^ x5 (/ 5 10)) (/ (+ x6 (- x1 x2)) 2))))) 2)))) (/ 5 10))) (- 1 (^ (- (/ (+ (* x6 (* x3 (+ (- x6) (+ x1 (+ (- x5 x3) (+ x4 x2)))))) (+ (* x1 (* x4 (+ (- x6 x1) (+ x5 (+ (- x3 x4) x2))))) (- (- (- (- (* x5 (* x2 (+ x6 (+ (- x1 x5) (+ x3 (- x4 x2)))))) (* x1 (* x5 x3))) (* x6 (* x5 x4))) (* x6 (* x1 x2))) (* x3 (* x4 x2))))) (* 4 (^ (+ (^ (* x6 (* x1 x5)) (/ 5 10)) (+ (* (^ x6 (/ 5 10)) (/ (+ x1 (- x5 x3)) 2)) (+ (* (^ x1 (/ 5 10)) (/ (+ x6 (- x5 x4)) 2)) (* (^ x5 (/ 5 10)) (/ (+ x6 (- x1 x2)) 2))))) 2)))) (/ 5 10))))) (* 2 (^ (- (/ (+ (* x6 (* x3 (+ (- x6) (+ x1 (+ (- x5 x3) (+ x4 x2)))))) (+ (* x1 (* x4 (+ (- x6 x1) (+ x5 (+ (- x3 x4) x2))))) (- (- (- (- (* x5 (* x2 (+ x6 (+ (- x1 x5) (+ x3 (- x4 x2)))))) (* x1 (* x5 x3))) (* x6 (* x5 x4))) (* x6 (* x1 x2))) (* x3 (* x4 x2))))) (* 4 (^ (+ (^ (* x6 (* x1 x5)) (/ 5 10)) (+ (* (^ x6 (/ 5 10)) (/ (+ x1 (- x5 x3)) 2)) (+ (* (^ x1 (/ 5 10)) (/ (+ x6 (- x5 x4)) 2)) (* (^ x5 (/ 5 10)) (/ (+ x6 (- x1 x2)) 2))))) 2)))) (/ 5 10)))))) (+ (^ (* x6 (* x1 x5)) (/ 5 10)) (+ (* (^ x6 (/ 5 10)) (/ (+ x1 (- x5 x3)) 2)) (+ (* (^ x1 (/ 5 10)) (/ (+ x6 (- x5 x4)) 2)) (* (^ x5 (/ 5 10)) (/ (+ x6 (- x1 x2)) 2)))))) (/ (ite (= (/ (+ (* x4 (* x1 (+ (- x4) (+ x2 (+ (- x6 x1) (+ x5 x3)))))) (+ (* x2 (* x5 (+ (- x4 x2) (+ x6 (+ (- x1 x5) x3))))) (- (- (- (- (* x6 (* x3 (+ x4 (+ (- x2 x6) (+ x1 (- x5 x3)))))) (* x2 (* x6 x1))) (* x4 (* x6 x5))) (* x4 (* x2 x3))) (* x1 (* x5 x3))))) (* 4 (^ (+ (^ (* x4 (* x2 x6)) (/ 5 10)) (+ (* (^ x4 (/ 5 10)) (/ (+ x2 (- x6 x1)) 2)) (+ (* (^ x2 (/ 5 10)) (/ (+ x4 (- x6 x5)) 2)) (* (^ x6 (/ 5 10)) (/ (+ x4 (- x2 x3)) 2))))) 2))) 0) 1 (ite (> (/ (+ (* x4 (* x1 (+ (- x4) (+ x2 (+ (- x6 x1) (+ x5 x3)))))) (+ (* x2 (* x5 (+ (- x4 x2) (+ x6 (+ (- x1 x5) x3))))) (- (- (- (- (* x6 (* x3 (+ x4 (+ (- x2 x6) (+ x1 (- x5 x3)))))) (* x2 (* x6 x1))) (* x4 (* x6 x5))) (* x4 (* x2 x3))) (* x1 (* x5 x3))))) (* 4 (^ (+ (^ (* x4 (* x2 x6)) (/ 5 10)) (+ (* (^ x4 (/ 5 10)) (/ (+ x2 (- x6 x1)) 2)) (+ (* (^ x2 (/ 5 10)) (/ (+ x4 (- x6 x5)) 2)) (* (^ x6 (/ 5 10)) (/ (+ x4 (- x2 x3)) 2))))) 2))) 0) (/ (arctan (^ (/ (+ (* x4 (* x1 (+ (- x4) (+ x2 (+ (- x6 x1) (+ x5 x3)))))) (+ (* x2 (* x5 (+ (- x4 x2) (+ x6 (+ (- x1 x5) x3))))) (- (- (- (- (* x6 (* x3 (+ x4 (+ (- x2 x6) (+ x1 (- x5 x3)))))) (* x2 (* x6 x1))) (* x4 (* x6 x5))) (* x4 (* x2 x3))) (* x1 (* x5 x3))))) (* 4 (^ (+ (^ (* x4 (* x2 x6)) (/ 5 10)) (+ (* (^ x4 (/ 5 10)) (/ (+ x2 (- x6 x1)) 2)) (+ (* (^ x2 (/ 5 10)) (/ (+ x4 (- x6 x5)) 2)) (* (^ x6 (/ 5 10)) (/ (+ x4 (- x2 x3)) 2))))) 2))) (/ 5 10))) (^ (/ (+ (* x4 (* x1 (+ (- x4) (+ x2 (+ (- x6 x1) (+ x5 x3)))))) (+ (* x2 (* x5 (+ (- x4 x2) (+ x6 (+ (- x1 x5) x3))))) (- (- (- (- (* x6 (* x3 (+ x4 (+ (- x2 x6) (+ x1 (- x5 x3)))))) (* x2 (* x6 x1))) (* x4 (* x6 x5))) (* x4 (* x2 x3))) (* x1 (* x5 x3))))) (* 4 (^ (+ (^ (* x4 (* x2 x6)) (/ 5 10)) (+ (* (^ x4 (/ 5 10)) (/ (+ x2 (- x6 x1)) 2)) (+ (* (^ x2 (/ 5 10)) (/ (+ x4 (- x6 x5)) 2)) (* (^ x6 (/ 5 10)) (/ (+ x4 (- x2 x3)) 2))))) 2))) (/ 5 10))) (/ (log (/ (+ 1 (^ (- (/ (+ (* x4 (* x1 (+ (- x4) (+ x2 (+ (- x6 x1) (+ x5 x3)))))) (+ (* x2 (* x5 (+ (- x4 x2) (+ x6 (+ (- x1 x5) x3))))) (- (- (- (- (* x6 (* x3 (+ x4 (+ (- x2 x6) (+ x1 (- x5 x3)))))) (* x2 (* x6 x1))) (* x4 (* x6 x5))) (* x4 (* x2 x3))) (* x1 (* x5 x3))))) (* 4 (^ (+ (^ (* x4 (* x2 x6)) (/ 5 10)) (+ (* (^ x4 (/ 5 10)) (/ (+ x2 (- x6 x1)) 2)) (+ (* (^ x2 (/ 5 10)) (/ (+ x4 (- x6 x5)) 2)) (* (^ x6 (/ 5 10)) (/ (+ x4 (- x2 x3)) 2))))) 2)))) (/ 5 10))) (- 1 (^ (- (/ (+ (* x4 (* x1 (+ (- x4) (+ x2 (+ (- x6 x1) (+ x5 x3)))))) (+ (* x2 (* x5 (+ (- x4 x2) (+ x6 (+ (- x1 x5) x3))))) (- (- (- (- (* x6 (* x3 (+ x4 (+ (- x2 x6) (+ x1 (- x5 x3)))))) (* x2 (* x6 x1))) (* x4 (* x6 x5))) (* x4 (* x2 x3))) (* x1 (* x5 x3))))) (* 4 (^ (+ (^ (* x4 (* x2 x6)) (/ 5 10)) (+ (* (^ x4 (/ 5 10)) (/ (+ x2 (- x6 x1)) 2)) (+ (* (^ x2 (/ 5 10)) (/ (+ x4 (- x6 x5)) 2)) (* (^ x6 (/ 5 10)) (/ (+ x4 (- x2 x3)) 2))))) 2)))) (/ 5 10))))) (* 2 (^ (- (/ (+ (* x4 (* x1 (+ (- x4) (+ x2 (+ (- x6 x1) (+ x5 x3)))))) (+ (* x2 (* x5 (+ (- x4 x2) (+ x6 (+ (- x1 x5) x3))))) (- (- (- (- (* x6 (* x3 (+ x4 (+ (- x2 x6) (+ x1 (- x5 x3)))))) (* x2 (* x6 x1))) (* x4 (* x6 x5))) (* x4 (* x2 x3))) (* x1 (* x5 x3))))) (* 4 (^ (+ (^ (* x4 (* x2 x6)) (/ 5 10)) (+ (* (^ x4 (/ 5 10)) (/ (+ x2 (- x6 x1)) 2)) (+ (* (^ x2 (/ 5 10)) (/ (+ x4 (- x6 x5)) 2)) (* (^ x6 (/ 5 10)) (/ (+ x4 (- x2 x3)) 2))))) 2)))) (/ 5 10)))))) (+ (^ (* x4 (* x2 x6)) (/ 5 10)) (+ (* (^ x4 (/ 5 10)) (/ (+ x2 (- x6 x1)) 2)) (+ (* (^ x2 (/ 5 10)) (/ (+ x4 (- x6 x5)) 2)) (* (^ x6 (/ 5 10)) (/ (+ x4 (- x2 x3)) 2)))))))))) (* (* 8 (/ (* (- (* 6 (- (* 3 (arccos (/ 1 3))) (/ 314159265 100000000))) (/ 314159265 100000000)) (/ (^ 2 (/ 5 10)) (* 6 (- (* 4 (/ 314159265 100000000)) (* 20 (- (* 3 (arccos (/ 1 3))) (/ 314159265 100000000))))))) (/ 314159265 100000000))) (+ (* (/ (- (/ 126 100) (/ (^ x2 (/ 5 10)) 2)) (- (/ 126 100) 1)) (* (/ (^ (* 4 x2) (/ 5 10)) (+ (- (* (- x3) x1) (* x2 x5)) (+ (* x3 x6) (+ (- (* x1 x4) (* x6 x4)) (* x2 (+ (- x2) (+ x3 (+ (- x1 x5) (+ x6 x4))))))))) (ite (= (/ (* 4 (* x2 (+ (* x2 (* x5 (+ (- x2) (+ x3 (+ (- x1 x5) (+ x6 x4)))))) (+ (* x3 (* x6 (+ (- x2 x3) (+ x1 (+ (- x5 x6) x4))))) (- (- (- (- (* x1 (* x4 (+ x2 (+ (- x3 x1) (+ x5 (- x6 x4)))))) (* x3 (* x1 x5))) (* x2 (* x1 x6))) (* x2 (* x3 x4))) (* x5 (* x6 x4))))))) (^ (+ (- (* (- x3) x1) (* x2 x5)) (+ (* x3 x6) (+ (- (* x1 x4) (* x6 x4)) (* x2 (+ (- x2) (+ x3 (+ (- x1 x5) (+ x6 x4)))))))) 2)) 0) 1 (ite (> (/ (* 4 (* x2 (+ (* x2 (* x5 (+ (- x2) (+ x3 (+ (- x1 x5) (+ x6 x4)))))) (+ (* x3 (* x6 (+ (- x2 x3) (+ x1 (+ (- x5 x6) x4))))) (- (- (- (- (* x1 (* x4 (+ x2 (+ (- x3 x1) (+ x5 (- x6 x4)))))) (* x3 (* x1 x5))) (* x2 (* x1 x6))) (* x2 (* x3 x4))) (* x5 (* x6 x4))))))) (^ (+ (- (* (- x3) x1) (* x2 x5)) (+ (* x3 x6) (+ (- (* x1 x4) (* x6 x4)) (* x2 (+ (- x2) (+ x3 (+ (- x1 x5) (+ x6 x4)))))))) 2)) 0) (/ (arctan (^ (/ (* 4 (* x2 (+ (* x2 (* x5 (+ (- x2) (+ x3 (+ (- x1 x5) (+ x6 x4)))))) (+ (* x3 (* x6 (+ (- x2 x3) (+ x1 (+ (- x5 x6) x4))))) (- (- (- (- (* x1 (* x4 (+ x2 (+ (- x3 x1) (+ x5 (- x6 x4)))))) (* x3 (* x1 x5))) (* x2 (* x1 x6))) (* x2 (* x3 x4))) (* x5 (* x6 x4))))))) (^ (+ (- (* (- x3) x1) (* x2 x5)) (+ (* x3 x6) (+ (- (* x1 x4) (* x6 x4)) (* x2 (+ (- x2) (+ x3 (+ (- x1 x5) (+ x6 x4)))))))) 2)) (/ 5 10))) (^ (/ (* 4 (* x2 (+ (* x2 (* x5 (+ (- x2) (+ x3 (+ (- x1 x5) (+ x6 x4)))))) (+ (* x3 (* x6 (+ (- x2 x3) (+ x1 (+ (- x5 x6) x4))))) (- (- (- (- (* x1 (* x4 (+ x2 (+ (- x3 x1) (+ x5 (- x6 x4)))))) (* x3 (* x1 x5))) (* x2 (* x1 x6))) (* x2 (* x3 x4))) (* x5 (* x6 x4))))))) (^ (+ (- (* (- x3) x1) (* x2 x5)) (+ (* x3 x6) (+ (- (* x1 x4) (* x6 x4)) (* x2 (+ (- x2) (+ x3 (+ (- x1 x5) (+ x6 x4)))))))) 2)) (/ 5 10))) (/ (log (/ (+ 1 (^ (- (/ (* 4 (* x2 (+ (* x2 (* x5 (+ (- x2) (+ x3 (+ (- x1 x5) (+ x6 x4)))))) (+ (* x3 (* x6 (+ (- x2 x3) (+ x1 (+ (- x5 x6) x4))))) (- (- (- (- (* x1 (* x4 (+ x2 (+ (- x3 x1) (+ x5 (- x6 x4)))))) (* x3 (* x1 x5))) (* x2 (* x1 x6))) (* x2 (* x3 x4))) (* x5 (* x6 x4))))))) (^ (+ (- (* (- x3) x1) (* x2 x5)) (+ (* x3 x6) (+ (- (* x1 x4) (* x6 x4)) (* x2 (+ (- x2) (+ x3 (+ (- x1 x5) (+ x6 x4)))))))) 2))) (/ 5 10))) (- 1 (^ (- (/ (* 4 (* x2 (+ (* x2 (* x5 (+ (- x2) (+ x3 (+ (- x1 x5) (+ x6 x4)))))) (+ (* x3 (* x6 (+ (- x2 x3) (+ x1 (+ (- x5 x6) x4))))) (- (- (- (- (* x1 (* x4 (+ x2 (+ (- x3 x1) (+ x5 (- x6 x4)))))) (* x3 (* x1 x5))) (* x2 (* x1 x6))) (* x2 (* x3 x4))) (* x5 (* x6 x4))))))) (^ (+ (- (* (- x3) x1) (* x2 x5)) (+ (* x3 x6) (+ (- (* x1 x4) (* x6 x4)) (* x2 (+ (- x2) (+ x3 (+ (- x1 x5) (+ x6 x4)))))))) 2))) (/ 5 10))))) (* 2 (^ (- (/ (* 4 (* x2 (+ (* x2 (* x5 (+ (- x2) (+ x3 (+ (- x1 x5) (+ x6 x4)))))) (+ (* x3 (* x6 (+ (- x2 x3) (+ x1 (+ (- x5 x6) x4))))) (- (- (- (- (* x1 (* x4 (+ x2 (+ (- x3 x1) (+ x5 (- x6 x4)))))) (* x3 (* x1 x5))) (* x2 (* x1 x6))) (* x2 (* x3 x4))) (* x5 (* x6 x4))))))) (^ (+ (- (* (- x3) x1) (* x2 x5)) (+ (* x3 x6) (+ (- (* x1 x4) (* x6 x4)) (* x2 (+ (- x2) (+ x3 (+ (- x1 x5) (+ x6 x4)))))))) 2))) (/ 5 10)))))))) (+ (* (/ (- (/ 126 100) (/ (^ x3 (/ 5 10)) 2)) (- (/ 126 100) 1)) (* (/ (^ (* 4 x3) (/ 5 10)) (+ (- (* (- x1) x2) (* x3 x6)) (+ (* x1 x4) (+ (- (* x2 x5) (* x4 x5)) (* x3 (+ (- x3) (+ x1 (+ (- x2 x6) (+ x4 x5))))))))) (ite (= (/ (* 4 (* x3 (+ (* x3 (* x6 (+ (- x3) (+ x1 (+ (- x2 x6) (+ x4 x5)))))) (+ (* x1 (* x4 (+ (- x3 x1) (+ x2 (+ (- x6 x4) x5))))) (- (- (- (- (* x2 (* x5 (+ x3 (+ (- x1 x2) (+ x6 (- x4 x5)))))) (* x1 (* x2 x6))) (* x3 (* x2 x4))) (* x3 (* x1 x5))) (* x6 (* x4 x5))))))) (^ (+ (- (* (- x1) x2) (* x3 x6)) (+ (* x1 x4) (+ (- (* x2 x5) (* x4 x5)) (* x3 (+ (- x3) (+ x1 (+ (- x2 x6) (+ x4 x5)))))))) 2)) 0) 1 (ite (> (/ (* 4 (* x3 (+ (* x3 (* x6 (+ (- x3) (+ x1 (+ (- x2 x6) (+ x4 x5)))))) (+ (* x1 (* x4 (+ (- x3 x1) (+ x2 (+ (- x6 x4) x5))))) (- (- (- (- (* x2 (* x5 (+ x3 (+ (- x1 x2) (+ x6 (- x4 x5)))))) (* x1 (* x2 x6))) (* x3 (* x2 x4))) (* x3 (* x1 x5))) (* x6 (* x4 x5))))))) (^ (+ (- (* (- x1) x2) (* x3 x6)) (+ (* x1 x4) (+ (- (* x2 x5) (* x4 x5)) (* x3 (+ (- x3) (+ x1 (+ (- x2 x6) (+ x4 x5)))))))) 2)) 0) (/ (arctan (^ (/ (* 4 (* x3 (+ (* x3 (* x6 (+ (- x3) (+ x1 (+ (- x2 x6) (+ x4 x5)))))) (+ (* x1 (* x4 (+ (- x3 x1) (+ x2 (+ (- x6 x4) x5))))) (- (- (- (- (* x2 (* x5 (+ x3 (+ (- x1 x2) (+ x6 (- x4 x5)))))) (* x1 (* x2 x6))) (* x3 (* x2 x4))) (* x3 (* x1 x5))) (* x6 (* x4 x5))))))) (^ (+ (- (* (- x1) x2) (* x3 x6)) (+ (* x1 x4) (+ (- (* x2 x5) (* x4 x5)) (* x3 (+ (- x3) (+ x1 (+ (- x2 x6) (+ x4 x5)))))))) 2)) (/ 5 10))) (^ (/ (* 4 (* x3 (+ (* x3 (* x6 (+ (- x3) (+ x1 (+ (- x2 x6) (+ x4 x5)))))) (+ (* x1 (* x4 (+ (- x3 x1) (+ x2 (+ (- x6 x4) x5))))) (- (- (- (- (* x2 (* x5 (+ x3 (+ (- x1 x2) (+ x6 (- x4 x5)))))) (* x1 (* x2 x6))) (* x3 (* x2 x4))) (* x3 (* x1 x5))) (* x6 (* x4 x5))))))) (^ (+ (- (* (- x1) x2) (* x3 x6)) (+ (* x1 x4) (+ (- (* x2 x5) (* x4 x5)) (* x3 (+ (- x3) (+ x1 (+ (- x2 x6) (+ x4 x5)))))))) 2)) (/ 5 10))) (/ (log (/ (+ 1 (^ (- (/ (* 4 (* x3 (+ (* x3 (* x6 (+ (- x3) (+ x1 (+ (- x2 x6) (+ x4 x5)))))) (+ (* x1 (* x4 (+ (- x3 x1) (+ x2 (+ (- x6 x4) x5))))) (- (- (- (- (* x2 (* x5 (+ x3 (+ (- x1 x2) (+ x6 (- x4 x5)))))) (* x1 (* x2 x6))) (* x3 (* x2 x4))) (* x3 (* x1 x5))) (* x6 (* x4 x5))))))) (^ (+ (- (* (- x1) x2) (* x3 x6)) (+ (* x1 x4) (+ (- (* x2 x5) (* x4 x5)) (* x3 (+ (- x3) (+ x1 (+ (- x2 x6) (+ x4 x5)))))))) 2))) (/ 5 10))) (- 1 (^ (- (/ (* 4 (* x3 (+ (* x3 (* x6 (+ (- x3) (+ x1 (+ (- x2 x6) (+ x4 x5)))))) (+ (* x1 (* x4 (+ (- x3 x1) (+ x2 (+ (- x6 x4) x5))))) (- (- (- (- (* x2 (* x5 (+ x3 (+ (- x1 x2) (+ x6 (- x4 x5)))))) (* x1 (* x2 x6))) (* x3 (* x2 x4))) (* x3 (* x1 x5))) (* x6 (* x4 x5))))))) (^ (+ (- (* (- x1) x2) (* x3 x6)) (+ (* x1 x4) (+ (- (* x2 x5) (* x4 x5)) (* x3 (+ (- x3) (+ x1 (+ (- x2 x6) (+ x4 x5)))))))) 2))) (/ 5 10))))) (* 2 (^ (- (/ (* 4 (* x3 (+ (* x3 (* x6 (+ (- x3) (+ x1 (+ (- x2 x6) (+ x4 x5)))))) (+ (* x1 (* x4 (+ (- x3 x1) (+ x2 (+ (- x6 x4) x5))))) (- (- (- (- (* x2 (* x5 (+ x3 (+ (- x1 x2) (+ x6 (- x4 x5)))))) (* x1 (* x2 x6))) (* x3 (* x2 x4))) (* x3 (* x1 x5))) (* x6 (* x4 x5))))))) (^ (+ (- (* (- x1) x2) (* x3 x6)) (+ (* x1 x4) (+ (- (* x2 x5) (* x4 x5)) (* x3 (+ (- x3) (+ x1 (+ (- x2 x6) (+ x4 x5)))))))) 2))) (/ 5 10)))))))) (+ (* (/ (- (/ 126 100) (/ (^ x5 (/ 5 10)) 2)) (- (/ 126 100) 1)) (* (/ (^ (* 4 x5) (/ 5 10)) (+ (- (* (- x3) x4) (* x5 x2)) (+ (* x3 x6) (+ (- (* x4 x1) (* x6 x1)) (* x5 (+ (- x5) (+ x3 (+ (- x4 x2) (+ x6 x1))))))))) (ite (= (/ (* 4 (* x5 (+ (* x5 (* x2 (+ (- x5) (+ x3 (+ (- x4 x2) (+ x6 x1)))))) (+ (* x3 (* x6 (+ (- x5 x3) (+ x4 (+ (- x2 x6) x1))))) (- (- (- (- (* x4 (* x1 (+ x5 (+ (- x3 x4) (+ x2 (- x6 x1)))))) (* x3 (* x4 x2))) (* x5 (* x4 x6))) (* x5 (* x3 x1))) (* x2 (* x6 x1))))))) (^ (+ (- (* (- x3) x4) (* x5 x2)) (+ (* x3 x6) (+ (- (* x4 x1) (* x6 x1)) (* x5 (+ (- x5) (+ x3 (+ (- x4 x2) (+ x6 x1)))))))) 2)) 0) 1 (ite (> (/ (* 4 (* x5 (+ (* x5 (* x2 (+ (- x5) (+ x3 (+ (- x4 x2) (+ x6 x1)))))) (+ (* x3 (* x6 (+ (- x5 x3) (+ x4 (+ (- x2 x6) x1))))) (- (- (- (- (* x4 (* x1 (+ x5 (+ (- x3 x4) (+ x2 (- x6 x1)))))) (* x3 (* x4 x2))) (* x5 (* x4 x6))) (* x5 (* x3 x1))) (* x2 (* x6 x1))))))) (^ (+ (- (* (- x3) x4) (* x5 x2)) (+ (* x3 x6) (+ (- (* x4 x1) (* x6 x1)) (* x5 (+ (- x5) (+ x3 (+ (- x4 x2) (+ x6 x1)))))))) 2)) 0) (/ (arctan (^ (/ (* 4 (* x5 (+ (* x5 (* x2 (+ (- x5) (+ x3 (+ (- x4 x2) (+ x6 x1)))))) (+ (* x3 (* x6 (+ (- x5 x3) (+ x4 (+ (- x2 x6) x1))))) (- (- (- (- (* x4 (* x1 (+ x5 (+ (- x3 x4) (+ x2 (- x6 x1)))))) (* x3 (* x4 x2))) (* x5 (* x4 x6))) (* x5 (* x3 x1))) (* x2 (* x6 x1))))))) (^ (+ (- (* (- x3) x4) (* x5 x2)) (+ (* x3 x6) (+ (- (* x4 x1) (* x6 x1)) (* x5 (+ (- x5) (+ x3 (+ (- x4 x2) (+ x6 x1)))))))) 2)) (/ 5 10))) (^ (/ (* 4 (* x5 (+ (* x5 (* x2 (+ (- x5) (+ x3 (+ (- x4 x2) (+ x6 x1)))))) (+ (* x3 (* x6 (+ (- x5 x3) (+ x4 (+ (- x2 x6) x1))))) (- (- (- (- (* x4 (* x1 (+ x5 (+ (- x3 x4) (+ x2 (- x6 x1)))))) (* x3 (* x4 x2))) (* x5 (* x4 x6))) (* x5 (* x3 x1))) (* x2 (* x6 x1))))))) (^ (+ (- (* (- x3) x4) (* x5 x2)) (+ (* x3 x6) (+ (- (* x4 x1) (* x6 x1)) (* x5 (+ (- x5) (+ x3 (+ (- x4 x2) (+ x6 x1)))))))) 2)) (/ 5 10))) (/ (log (/ (+ 1 (^ (- (/ (* 4 (* x5 (+ (* x5 (* x2 (+ (- x5) (+ x3 (+ (- x4 x2) (+ x6 x1)))))) (+ (* x3 (* x6 (+ (- x5 x3) (+ x4 (+ (- x2 x6) x1))))) (- (- (- (- (* x4 (* x1 (+ x5 (+ (- x3 x4) (+ x2 (- x6 x1)))))) (* x3 (* x4 x2))) (* x5 (* x4 x6))) (* x5 (* x3 x1))) (* x2 (* x6 x1))))))) (^ (+ (- (* (- x3) x4) (* x5 x2)) (+ (* x3 x6) (+ (- (* x4 x1) (* x6 x1)) (* x5 (+ (- x5) (+ x3 (+ (- x4 x2) (+ x6 x1)))))))) 2))) (/ 5 10))) (- 1 (^ (- (/ (* 4 (* x5 (+ (* x5 (* x2 (+ (- x5) (+ x3 (+ (- x4 x2) (+ x6 x1)))))) (+ (* x3 (* x6 (+ (- x5 x3) (+ x4 (+ (- x2 x6) x1))))) (- (- (- (- (* x4 (* x1 (+ x5 (+ (- x3 x4) (+ x2 (- x6 x1)))))) (* x3 (* x4 x2))) (* x5 (* x4 x6))) (* x5 (* x3 x1))) (* x2 (* x6 x1))))))) (^ (+ (- (* (- x3) x4) (* x5 x2)) (+ (* x3 x6) (+ (- (* x4 x1) (* x6 x1)) (* x5 (+ (- x5) (+ x3 (+ (- x4 x2) (+ x6 x1)))))))) 2))) (/ 5 10))))) (* 2 (^ (- (/ (* 4 (* x5 (+ (* x5 (* x2 (+ (- x5) (+ x3 (+ (- x4 x2) (+ x6 x1)))))) (+ (* x3 (* x6 (+ (- x5 x3) (+ x4 (+ (- x2 x6) x1))))) (- (- (- (- (* x4 (* x1 (+ x5 (+ (- x3 x4) (+ x2 (- x6 x1)))))) (* x3 (* x4 x2))) (* x5 (* x4 x6))) (* x5 (* x3 x1))) (* x2 (* x6 x1))))))) (^ (+ (- (* (- x3) x4) (* x5 x2)) (+ (* x3 x6) (+ (- (* x4 x1) (* x6 x1)) (* x5 (+ (- x5) (+ x3 (+ (- x4 x2) (+ x6 x1)))))))) 2))) (/ 5 10)))))))) (* (/ (- (/ 126 100) (/ (^ x6 (/ 5 10)) 2)) (- (/ 126 100) 1)) (* (/ (^ (* 4 x6) (/ 5 10)) (+ (- (* (- x1) x5) (* x6 x3)) (+ (* x1 x4) (+ (- (* x5 x2) (* x4 x2)) (* x6 (+ (- x6) (+ x1 (+ (- x5 x3) (+ x4 x2))))))))) (ite (= (/ (* 4 (* x6 (+ (* x6 (* x3 (+ (- x6) (+ x1 (+ (- x5 x3) (+ x4 x2)))))) (+ (* x1 (* x4 (+ (- x6 x1) (+ x5 (+ (- x3 x4) x2))))) (- (- (- (- (* x5 (* x2 (+ x6 (+ (- x1 x5) (+ x3 (- x4 x2)))))) (* x1 (* x5 x3))) (* x6 (* x5 x4))) (* x6 (* x1 x2))) (* x3 (* x4 x2))))))) (^ (+ (- (* (- x1) x5) (* x6 x3)) (+ (* x1 x4) (+ (- (* x5 x2) (* x4 x2)) (* x6 (+ (- x6) (+ x1 (+ (- x5 x3) (+ x4 x2)))))))) 2)) 0) 1 (ite (> (/ (* 4 (* x6 (+ (* x6 (* x3 (+ (- x6) (+ x1 (+ (- x5 x3) (+ x4 x2)))))) (+ (* x1 (* x4 (+ (- x6 x1) (+ x5 (+ (- x3 x4) x2))))) (- (- (- (- (* x5 (* x2 (+ x6 (+ (- x1 x5) (+ x3 (- x4 x2)))))) (* x1 (* x5 x3))) (* x6 (* x5 x4))) (* x6 (* x1 x2))) (* x3 (* x4 x2))))))) (^ (+ (- (* (- x1) x5) (* x6 x3)) (+ (* x1 x4) (+ (- (* x5 x2) (* x4 x2)) (* x6 (+ (- x6) (+ x1 (+ (- x5 x3) (+ x4 x2)))))))) 2)) 0) (/ (arctan (^ (/ (* 4 (* x6 (+ (* x6 (* x3 (+ (- x6) (+ x1 (+ (- x5 x3) (+ x4 x2)))))) (+ (* x1 (* x4 (+ (- x6 x1) (+ x5 (+ (- x3 x4) x2))))) (- (- (- (- (* x5 (* x2 (+ x6 (+ (- x1 x5) (+ x3 (- x4 x2)))))) (* x1 (* x5 x3))) (* x6 (* x5 x4))) (* x6 (* x1 x2))) (* x3 (* x4 x2))))))) (^ (+ (- (* (- x1) x5) (* x6 x3)) (+ (* x1 x4) (+ (- (* x5 x2) (* x4 x2)) (* x6 (+ (- x6) (+ x1 (+ (- x5 x3) (+ x4 x2)))))))) 2)) (/ 5 10))) (^ (/ (* 4 (* x6 (+ (* x6 (* x3 (+ (- x6) (+ x1 (+ (- x5 x3) (+ x4 x2)))))) (+ (* x1 (* x4 (+ (- x6 x1) (+ x5 (+ (- x3 x4) x2))))) (- (- (- (- (* x5 (* x2 (+ x6 (+ (- x1 x5) (+ x3 (- x4 x2)))))) (* x1 (* x5 x3))) (* x6 (* x5 x4))) (* x6 (* x1 x2))) (* x3 (* x4 x2))))))) (^ (+ (- (* (- x1) x5) (* x6 x3)) (+ (* x1 x4) (+ (- (* x5 x2) (* x4 x2)) (* x6 (+ (- x6) (+ x1 (+ (- x5 x3) (+ x4 x2)))))))) 2)) (/ 5 10))) (/ (log (/ (+ 1 (^ (- (/ (* 4 (* x6 (+ (* x6 (* x3 (+ (- x6) (+ x1 (+ (- x5 x3) (+ x4 x2)))))) (+ (* x1 (* x4 (+ (- x6 x1) (+ x5 (+ (- x3 x4) x2))))) (- (- (- (- (* x5 (* x2 (+ x6 (+ (- x1 x5) (+ x3 (- x4 x2)))))) (* x1 (* x5 x3))) (* x6 (* x5 x4))) (* x6 (* x1 x2))) (* x3 (* x4 x2))))))) (^ (+ (- (* (- x1) x5) (* x6 x3)) (+ (* x1 x4) (+ (- (* x5 x2) (* x4 x2)) (* x6 (+ (- x6) (+ x1 (+ (- x5 x3) (+ x4 x2)))))))) 2))) (/ 5 10))) (- 1 (^ (- (/ (* 4 (* x6 (+ (* x6 (* x3 (+ (- x6) (+ x1 (+ (- x5 x3) (+ x4 x2)))))) (+ (* x1 (* x4 (+ (- x6 x1) (+ x5 (+ (- x3 x4) x2))))) (- (- (- (- (* x5 (* x2 (+ x6 (+ (- x1 x5) (+ x3 (- x4 x2)))))) (* x1 (* x5 x3))) (* x6 (* x5 x4))) (* x6 (* x1 x2))) (* x3 (* x4 x2))))))) (^ (+ (- (* (- x1) x5) (* x6 x3)) (+ (* x1 x4) (+ (- (* x5 x2) (* x4 x2)) (* x6 (+ (- x6) (+ x1 (+ (- x5 x3) (+ x4 x2)))))))) 2))) (/ 5 10))))) (* 2 (^ (- (/ (* 4 (* x6 (+ (* x6 (* x3 (+ (- x6) (+ x1 (+ (- x5 x3) (+ x4 x2)))))) (+ (* x1 (* x4 (+ (- x6 x1) (+ x5 (+ (- x3 x4) x2))))) (- (- (- (- (* x5 (* x2 (+ x6 (+ (- x1 x5) (+ x3 (- x4 x2)))))) (* x1 (* x5 x3))) (* x6 (* x5 x4))) (* x6 (* x1 x2))) (* x3 (* x4 x2))))))) (^ (+ (- (* (- x1) x5) (* x6 x3)) (+ (* x1 x4) (+ (- (* x5 x2) (* x4 x2)) (* x6 (+ (- x6) (+ x1 (+ (- x5 x3) (+ x4 x2)))))))) 2))) (/ 5 10)))))))))))))) 0) (< (+ (* x1 (* x4 (+ (- x1) (+ x2 (+ (- x3 x4) (+ x5 x6)))))) (+ (* x2 (* x5 (+ (- x1 x2) (+ x3 (+ (- x4 x5) x6))))) (- (- (- (- (* x3 (* x6 (+ x1 (+ (- x2 x3) (+ x4 (- x5 x6)))))) (* x2 (* x3 x4))) (* x1 (* x3 x5))) (* x1 (* x2 x6))) (* x4 (* x5 x6))))) 0))))
)
(check-sat)
(exit)
